db/data/54993134431142233422768307022148329575.z3.out
sat
-------------------
558.934536700
